db/data/2384114037230424435492189313012312798.z3.out
-------------------
2500.241776937
